Version identifier: 12.10.0.0 | 2019-11-26 | 843d4de
CPXPARAM_WorkMem                                 28672
Tried aggregator 2 times.
Aggregator did 75 substitutions.
Reduced MIP has 319 rows, 360 columns, and 1480 nonzeros.
Reduced MIP has 360 binaries, 0 generals, 0 SOSs, and 0 indicators.
Presolve time = 0,00 sec. (1,44 ticks)
Found incumbent of value 1512,000000 after 0,00 sec. (2,23 ticks)
Probing time = 0,00 sec. (0,72 ticks)
Tried aggregator 1 time.
Detecting symmetries...
MIP Presolve eliminated 68 rows and 0 columns.
MIP Presolve added 136 rows and 0 columns.
Reduced MIP has 387 rows, 360 columns, and 1548 nonzeros.
Reduced MIP has 360 binaries, 0 generals, 0 SOSs, and 0 indicators.
Presolve time = 0,00 sec. (1,90 ticks)
Probing time = 0,00 sec. (0,70 ticks)
Clique table members: 1075.
MIP emphasis: balance optimality and feasibility.
MIP search method: dynamic search.
Parallel mode: deterministic, using up to 16 threads.
Root relaxation solution time = 0,00 sec. (2,15 ticks)

        Nodes                                         Cuts/
   Node  Left     Objective  IInf  Best Integer    Best Bound    ItCnt     Gap

*     0+    0                         1512,0000        0,0000           100,00%
*     0+    0                          880,0000        0,0000           100,00%
      0     0      378,0000   264      880,0000      378,0000      162   57,05%
      0     0      378,1579   264      880,0000     Cuts: 196      251   57,03%
*     0+    0                          879,0000      378,1579            56,98%
      0     0      383,2038   264      879,0000     Cuts: 187      313   56,40%
      0     0      383,9404   264      879,0000     Cuts: 142      334   56,32%
*     0+    0                          862,0000      383,9404            55,46%
      0     0      384,3446   264      862,0000     Cuts: 152      347   55,41%
      0     0      384,4618   264      862,0000      Cuts: 34      357   55,40%
      0     0      384,6645   264      862,0000     Cuts: 144      370   55,38%
      0     0      384,7968   264      862,0000      Cuts: 36      381   55,36%
      0     0      384,9572   264      862,0000     Cuts: 123      391   55,34%
*     0+    0                          778,0000      384,9572            50,52%
      0     2      384,9572   358      778,0000      445,1900      391   42,78%
Elapsed time = 0,23 sec. (107,99 ticks, tree = 0,02 MB, solutions = 5)
   1600   694      718,9167    47      778,0000      527,8169    19881   32,16%
   4223  2653      766,9823    89      778,0000      573,9853    96175   26,22%

Performing restart 1

Repeating presolve.
Tried aggregator 1 time.
Reduced MIP has 387 rows, 360 columns, and 1548 nonzeros.
Reduced MIP has 360 binaries, 0 generals, 0 SOSs, and 0 indicators.
Presolve time = 0,00 sec. (0,94 ticks)
Tried aggregator 1 time.
Reduced MIP has 387 rows, 360 columns, and 1548 nonzeros.
Reduced MIP has 360 binaries, 0 generals, 0 SOSs, and 0 indicators.
Presolve time = 0,00 sec. (1,34 ticks)
Represolve time = 0,01 sec. (8,53 ticks)
   4647     0      386,0217   358      778,0000       Cuts: 4   132195   20,04%
   4647     0      386,7700   358      778,0000       Cuts: 2   132216   20,04%
   4647     0      386,8351   358      778,0000       Cuts: 2   132225   20,04%
   4647     0      390,6624   358      778,0000      Cuts: 12   132286   20,04%
   4647     2      390,6624   357      778,0000      622,0833   132286   20,04%
   4667    17      503,6795   265      778,0000      622,0833   135041   20,04%
   6252  1229      680,7363   148      778,0000      622,0833   211594   20,04%
   8625  2678      687,1043   155      778,0000      622,0833   283374   20,04%
  10699  4442      693,5052   285      778,0000      622,0833   363467   20,04%

Performing restart 2

Repeating presolve.
Tried aggregator 1 time.
Reduced MIP has 387 rows, 360 columns, and 1548 nonzeros.
Reduced MIP has 360 binaries, 0 generals, 0 SOSs, and 0 indicators.
Presolve time = 0,00 sec. (0,94 ticks)
Tried aggregator 1 time.
Reduced MIP has 387 rows, 360 columns, and 1548 nonzeros.
Reduced MIP has 360 binaries, 0 generals, 0 SOSs, and 0 indicators.
Presolve time = 0,00 sec. (1,34 ticks)
Represolve time = 0,03 sec. (17,20 ticks)
  10701     0      393,2174   358      778,0000       Cuts: 6   383211   20,04%
  10701     0      394,4056   358      778,0000       Cuts: 9   383243   20,04%
  10701     0      395,8119   358      778,0000      Cuts: 14   383279   20,04%
  10701     0      398,0676   358      778,0000      Cuts: 12   383339   20,04%
  10701     0      399,7538   358      778,0000       Cuts: 8   383394   20,04%
  10701     0      400,0172   358      778,0000      Fract: 3   383409   20,04%
  10701     2      400,0172   355      778,0000      622,0833   383409   20,04%
* 12881+ 1274                          777,0000      622,0833            19,94%
  13624  1828      753,2167    19      777,0000      622,0833   438500   19,94%
* 20274+ 4365                          772,0000      712,4667             7,71%
  22955  2767        cutoff            772,0000      739,1000   712653    4,26%
Elapsed time = 4,92 sec. (3687,31 ticks, tree = 9,04 MB, solutions = 7)

Clique cuts applied:  16
Cover cuts applied:  669
Flow cuts applied:  14
Mixed integer rounding cuts applied:  48
Zero-half cuts applied:  6
Lift and project cuts applied:  2
Gomory fractional cuts applied:  36

Root node processing (before b&c):
  Real time             =    0,23 sec. (107,67 ticks)
Parallel b&c, 16 threads:
  Real time             =    5,19 sec. (3759,95 ticks)
  Sync time (average)   =    1,50 sec.
  Wait time (average)   =    0,01 sec.
                          ------------
Total (root+branch&cut) =    5,42 sec. (3867,62 ticks)
